1 1981 10
2 1763 9
3 1686 9
5 1616 9
7 1607 9
12 1600 9
13 1593 9
15 1573 9
62 1566 9
111 1542 9
134 1532 9



1 2050 10
2 1746 9
3 1727 9
5 1662 9
7 1643 9
9 1634 9
10 1623 9
15 1603 9
24 1593 9
34 1572 9
69 1548 9
332 1534 9
614 1524 9



1 2067 10
2 1743 9
3 1724 9
4 1631 9
8 1578 9
30 1573 9
33 1552 9
51 1543 9
212 1537 9
429 1534 9



1 2087 10
2 1751 9
4 1662 9
7 1635 10
12 1628 9
17 1606 9
20 1568 9
173 1557 9
190 1553 9
342 1543 9
426 1532 9
467 1529 9



1 2023 10
2 1716 9
3 1640 9
7 1629 9
8 1599 9
18 1593 9
21 1591 9
24 1582 9
33 1567 9
79 1536 9
380 1534 9
496 1527 9
874 1526 9



